DIVISION_NUMBERS
43 40 53
X_COORDINATES
-522.417968000000
-46.343750000000
-15.875000000000
-13.875000000000
-13.125000000000
-12.375000000000
-11.625000000000
-10.875000000000
-10.125000000000
-9.375000000000
-8.625000000000
-7.875000000000
-7.125000000000
-6.375000000000
-5.625000000000
-4.875000000000
-4.125000000000
-3.375000000000
-2.625000000000
-1.875000000000
-1.125000000000
-0.375000000000
0.375000000000
1.125000000000
1.875000000000
2.625000000000
3.375000000000
4.125000000000
4.875000000000
5.625000000000
6.375000000000
7.125000000000
7.875000000000
8.625000000000
9.375000000000
10.125000000000
10.875000000000
11.625000000000
12.375000000000
13.125000000000
13.875000000000
15.875000000000
46.343750000000
522.417968000000
Y_COORDINATES
-521.292968000000
-45.218750000000
-14.750000000000
-12.750000000000
-12.000000000000
-11.250000000000
-10.500000000000
-9.750000000000
-9.000000000000
-8.250000000000
-7.500000000000
-6.750000000000
-6.000000000000
-5.250000000000
-4.500000000000
-3.750000000000
-3.000000000000
-2.250000000000
-1.500000000000
-0.750000000000
0.000000000000
0.750000000000
1.500000000000
2.250000000000
3.000000000000
3.750000000000
4.500000000000
5.250000000000
6.000000000000
6.750000000000
7.500000000000
8.250000000000
9.000000000000
9.750000000000
10.500000000000
11.250000000000
12.000000000000
12.750000000000
14.750000000000
45.218750000000
521.292968000000
Z_COORDINATES
-150.000000000000
-51.649491559623
-17.784466522450
-6.123724356958
-2.108581663254
-0.726047805460
-0.250000000000
0.000000000000
0.025000000000
0.054930653139
0.090764413033
0.133665526556
0.185027860482
0.246520188529
0.320140410189
0.408280462931
0.513804036783
0.640139616263
0.791391872607
0.972475025454
1.189272506944
1.448828115743
1.759574871637
2.131609006232
2.577017991775
3.110273265834
3.748700411538
4.513042069653
5.428131871614
6.523701289771
7.835345619570
9.405680478671
11.285726397889
13.536566489661
16.231331052025
19.457573588365
23.320115440317
27.944451456607
33.480827348753
40.109121207842
48.044687783942
57.545355410100
68.919802902554
82.537588604519
98.841157419413
118.360215944737
141.728942757912
169.706593020104
203.202166846242
243.303942922069
291.314836922067
348.794733531147
417.611167446971
500.000000000000
INITIAL_RESISTIVITY
2.500000000000e+02
AIR_RESISTIVITY
1.000000000000e+10
SEA_RESISTIVITY
3.000000000000e-01
ANOMALIES
0
TYPE
1
END
